p cnf 44 128
19 20 21 22 0
23 24 25 26 27 28 0
32 33 34 0
-1 -29 0
-1 -35 0
-1 -41 0
-29 -35 0
-29 -41 0
-35 -41 0
-2 -6 0
-2 -15 0
-2 -23 0
-2 -30 0
-2 -36 0
-6 -15 0
-6 -23 0
-6 -30 0
-6 -36 0
-15 -23 0
-15 -30 0
-15 -36 0
-23 -30 0
-23 -36 0
-30 -36 0
-3 -7 0
-3 -11 0
-3 -16 0
-3 -19 0
-3 -24 0
-3 -32 0
-3 -37 0
-3 -42 0
-7 -11 0
-7 -16 0
-7 -19 0
-7 -24 0
-7 -32 0
-7 -37 0
-7 -42 0
-11 -16 0
-11 -19 0
-11 -24 0
-11 -32 0
-11 -37 0
-11 -42 0
-16 -19 0
-16 -24 0
-16 -32 0
-16 -37 0
-16 -42 0
-19 -24 0
-19 -32 0
-19 -37 0
-19 -42 0
-24 -32 0
-24 -37 0
-24 -42 0
-32 -37 0
-32 -42 0
-37 -42 0
-4 -12 0
-4 -20 0
-4 -25 0
-4 -31 0
-4 -38 0
-12 -20 0
-12 -25 0
-12 -31 0
-12 -38 0
-20 -25 0
-20 -31 0
-20 -38 0
-25 -31 0
-25 -38 0
-31 -38 0
-8 -17 0
-8 -21 0
-8 -26 0
-8 -43 0
-17 -21 0
-17 -26 0
-17 -43 0
-21 -26 0
-21 -43 0
-26 -43 0
-9 -13 0
-9 -18 0
-9 -22 0
-9 -27 0
-9 -33 0
-9 -39 0
-9 -44 0
-13 -18 0
-13 -22 0
-13 -27 0
-13 -33 0
-13 -39 0
-13 -44 0
-18 -22 0
-18 -27 0
-18 -33 0
-18 -39 0
-18 -44 0
-22 -27 0
-22 -33 0
-22 -39 0
-22 -44 0
-27 -33 0
-27 -39 0
-27 -44 0
-33 -39 0
-33 -44 0
-39 -44 0
-5 -10 0
-5 -14 0
-5 -28 0
-5 -34 0
-5 -40 0
-10 -14 0
-10 -28 0
-10 -34 0
-10 -40 0
-14 -28 0
-14 -34 0
-14 -40 0
-28 -34 0
-28 -40 0
-34 -40 0
